
(set-logic HORN)
(define-fun zero_113 () Int 0)
(define-fun succ_110 ((x Int)) Int (+ x 1))
(declare-datatypes ((Bool_267 0)) (((false_267) (true_267))))
(declare-fun diseqBool_126 (Bool_267 Bool_267) Bool)
(declare-fun isfalse_126 (Bool_267) Bool)
(declare-fun istrue_126 (Bool_267) Bool)
(assert (isfalse_126 false_267))
(assert (istrue_126 true_267))
(assert (diseqBool_126 false_267 true_267))
(assert (diseqBool_126 true_267 false_267))
(declare-fun and_267 (Bool_267 Bool_267 Bool_267) Bool)
(declare-fun or_273 (Bool_267 Bool_267 Bool_267) Bool)
(declare-fun hence_267 (Bool_267 Bool_267 Bool_267) Bool)
(declare-fun not_271 (Bool_267 Bool_267) Bool)
(assert (and_267 false_267 false_267 false_267))
(assert (and_267 false_267 true_267 false_267))
(assert (and_267 false_267 false_267 true_267))
(assert (and_267 true_267 true_267 true_267))
(assert (or_273 false_267 false_267 false_267))
(assert (or_273 true_267 true_267 false_267))
(assert (or_273 true_267 false_267 true_267))
(assert (or_273 true_267 true_267 true_267))
(assert (hence_267 true_267 false_267 false_267))
(assert (hence_267 false_267 true_267 false_267))
(assert (hence_267 true_267 false_267 true_267))
(assert (hence_267 true_267 true_267 true_267))
(assert (not_271 true_267 false_267))
(assert (not_271 false_267 true_267))
(declare-fun diseqInt (Int Int) Bool)
(declare-fun p_319 (Int Int) Bool)
(declare-fun iszero_110 (Int) Bool)
(declare-fun issucc_110 (Int) Bool)
(assert (forall ((x_50049 Int))
	(p_319 x_50049 (succ_110 x_50049))))
(assert (iszero_110 zero_113))
(assert (forall ((x_50051 Int))
	(issucc_110 (succ_110 x_50051))))
(assert (forall ((x_50052 Int))
	(diseqInt zero_113 (succ_110 x_50052))))
(assert (forall ((x_50053 Int))
	(diseqInt (succ_110 x_50053) zero_113)))
(assert (forall ((x_50054 Int) (x_50055 Int))
	(=> (diseqInt x_50054 x_50055) (diseqInt (succ_110 x_50054) (succ_110 x_50055)))))
(declare-datatypes ((list_195 0)) (((nil_221) (cons_195 (head_390 Int) (tail_390 list_195)))))
(declare-fun diseqlist_195 (list_195 list_195) Bool)
(declare-fun head_391 (Int list_195) Bool)
(declare-fun tail_391 (list_195 list_195) Bool)
(declare-fun isnil_221 (list_195) Bool)
(declare-fun iscons_195 (list_195) Bool)
(assert (forall ((x_50057 Int) (x_50058 list_195))
	(head_391 x_50057 (cons_195 x_50057 x_50058))))
(assert (forall ((x_50057 Int) (x_50058 list_195))
	(tail_391 x_50058 (cons_195 x_50057 x_50058))))
(assert (isnil_221 nil_221))
(assert (forall ((x_50060 Int) (x_50061 list_195))
	(iscons_195 (cons_195 x_50060 x_50061))))
(assert (forall ((x_50062 Int) (x_50063 list_195))
	(diseqlist_195 nil_221 (cons_195 x_50062 x_50063))))
(assert (forall ((x_50064 Int) (x_50065 list_195))
	(diseqlist_195 (cons_195 x_50064 x_50065) nil_221)))
(assert (forall ((x_50066 Int) (x_50067 list_195) (x_50068 Int) (x_50069 list_195))
	(=> (diseqInt x_50066 x_50068) (diseqlist_195 (cons_195 x_50066 x_50067) (cons_195 x_50068 x_50069)))))
(assert (forall ((x_50066 Int) (x_50067 list_195) (x_50068 Int) (x_50069 list_195))
	(=> (diseqlist_195 x_50067 x_50069) (diseqlist_195 (cons_195 x_50066 x_50067) (cons_195 x_50068 x_50069)))))
(declare-fun take_43 (list_195 Int list_195) Bool)
(assert (forall ((x_49981 list_195) (z_1590 Int) (xs_530 list_195) (z_1589 Int))
	(=> (take_43 x_49981 z_1589 xs_530) (take_43 (cons_195 z_1590 x_49981) (succ_110 z_1589) (cons_195 z_1590 xs_530)))))
(assert (forall ((z_1589 Int))
	(take_43 nil_221 (succ_110 z_1589) nil_221)))
(assert (forall ((y_1779 list_195))
	(take_43 nil_221 zero_113 y_1779)))
(declare-fun plus_111 (Int Int Int) Bool)
(assert (forall ((x_49985 Int) (z_1591 Int) (y_1780 Int))
	(=> (plus_111 x_49985 z_1591 y_1780) (plus_111 (succ_110 x_49985) (succ_110 z_1591) y_1780))))
(assert (forall ((x_49986 Int))
	(plus_111 x_49986 zero_113 x_49986)))
(declare-fun minus_283 (Int Int Int) Bool)
(assert (forall ((x_49987 Int) (y_1782 Int) (z_1592 Int))
	(=> (minus_283 x_49987 z_1592 y_1782) (minus_283 x_49987 (succ_110 z_1592) (succ_110 y_1782)))))
(assert (forall ((z_1592 Int))
	(minus_283 zero_113 (succ_110 z_1592) zero_113)))
(assert (forall ((y_1781 Int))
	(minus_283 zero_113 zero_113 y_1781)))
(declare-fun nmsorttdhalf_3 (Int Int) Bool)
(assert (nmsorttdhalf_3 zero_113 (succ_110 zero_113)))
(assert (forall ((x_49992 Int) (x_49993 Int) (x_49994 Int) (y_1783 Int))
	(=> (and (diseqInt (succ_110 y_1783) (succ_110 zero_113)) (minus_283 x_49993 (succ_110 y_1783) (succ_110 (succ_110 zero_113))) (nmsorttdhalf_3 x_49994 x_49993) (plus_111 x_49992 (succ_110 zero_113) x_49994)) (nmsorttdhalf_3 x_49992 (succ_110 y_1783)))))
(assert (nmsorttdhalf_3 zero_113 (succ_110 zero_113)))
(assert (=> (diseqInt zero_113 (succ_110 zero_113)) (nmsorttdhalf_3 zero_113 zero_113)))
(declare-fun leq_43 (Bool_267 Int Int) Bool)
(assert (forall ((x_49998 Bool_267) (x_49964 Int) (z_1593 Int))
	(=> (leq_43 x_49998 z_1593 x_49964) (leq_43 x_49998 (succ_110 z_1593) (succ_110 x_49964)))))
(assert (forall ((z_1593 Int))
	(leq_43 false_267 (succ_110 z_1593) zero_113)))
(assert (forall ((y_1784 Int))
	(leq_43 true_267 zero_113 y_1784)))
(declare-fun lmerge_12 (list_195 list_195 list_195) Bool)
(assert (forall ((x_50004 list_195) (x_49967 Int) (x_49968 list_195) (z_1594 Int) (x_49966 list_195))
	(=> (and (lmerge_12 x_50004 x_49966 (cons_195 x_49967 x_49968)) (leq_43 true_267 z_1594 x_49967)) (lmerge_12 (cons_195 z_1594 x_50004) (cons_195 z_1594 x_49966) (cons_195 x_49967 x_49968)))))
(assert (forall ((x_50007 list_195) (x_49967 Int) (x_49968 list_195) (z_1594 Int) (x_49966 list_195))
	(=> (and (lmerge_12 x_50007 (cons_195 z_1594 x_49966) x_49968) (leq_43 false_267 z_1594 x_49967)) (lmerge_12 (cons_195 x_49967 x_50007) (cons_195 z_1594 x_49966) (cons_195 x_49967 x_49968)))))
(assert (forall ((z_1594 Int) (x_49966 list_195))
	(lmerge_12 (cons_195 z_1594 x_49966) (cons_195 z_1594 x_49966) nil_221)))
(assert (forall ((x_50009 list_195))
	(lmerge_12 x_50009 nil_221 x_50009)))
(declare-fun length_33 (Int list_195) Bool)
(assert (forall ((x_50010 Int) (x_50011 Int) (y_1786 Int) (l_35 list_195))
	(=> (and (length_33 x_50011 l_35) (plus_111 x_50010 (succ_110 zero_113) x_50011)) (length_33 x_50010 (cons_195 y_1786 l_35)))))
(assert (length_33 zero_113 nil_221))
(declare-fun drop_45 (list_195 Int list_195) Bool)
(assert (forall ((x_50014 list_195) (z_1596 Int) (xs_531 list_195) (z_1595 Int))
	(=> (drop_45 x_50014 z_1595 xs_531) (drop_45 x_50014 (succ_110 z_1595) (cons_195 z_1596 xs_531)))))
(assert (forall ((z_1595 Int))
	(drop_45 nil_221 (succ_110 z_1595) nil_221)))
(assert (forall ((x_50017 list_195))
	(drop_45 x_50017 zero_113 x_50017)))
(declare-fun nmsorttd_3 (list_195 list_195) Bool)
(assert (forall ((x_50020 list_195) (x_50021 list_195) (x_50022 list_195) (x_50023 list_195) (x_50024 list_195) (x_50018 Int) (k_10 Int) (x_49972 Int) (x_49973 list_195) (y_1788 Int))
	(=> (and (take_43 x_50021 k_10 (cons_195 y_1788 (cons_195 x_49972 x_49973))) (nmsorttd_3 x_50022 x_50021) (drop_45 x_50023 k_10 (cons_195 y_1788 (cons_195 x_49972 x_49973))) (nmsorttd_3 x_50024 x_50023) (lmerge_12 x_50020 x_50022 x_50024) (length_33 x_50018 (cons_195 y_1788 (cons_195 x_49972 x_49973))) (nmsorttdhalf_3 k_10 x_50018)) (nmsorttd_3 x_50020 (cons_195 y_1788 (cons_195 x_49972 x_49973))))))
(assert (forall ((y_1788 Int))
	(nmsorttd_3 (cons_195 y_1788 nil_221) (cons_195 y_1788 nil_221))))
(assert (nmsorttd_3 nil_221 nil_221))
(declare-fun count_30 (Int Int list_195) Bool)
(assert (forall ((x_50028 Int) (x_50029 Int) (ys_171 list_195) (x_49974 Int))
	(=> (and (count_30 x_50029 x_49974 ys_171) (plus_111 x_50028 (succ_110 zero_113) x_50029)) (count_30 x_50028 x_49974 (cons_195 x_49974 ys_171)))))
(assert (forall ((x_50031 Int) (z_1598 Int) (ys_171 list_195) (x_49974 Int))
	(=> (and (diseqInt x_49974 z_1598) (count_30 x_50031 x_49974 ys_171)) (count_30 x_50031 x_49974 (cons_195 z_1598 ys_171)))))
(assert (forall ((x_49974 Int))
	(count_30 zero_113 x_49974 nil_221)))
(assert (forall ((x_50034 Int) (x_50035 Int) (x_50036 Int) (x_50037 Int) (x_49975 Int) (y_1790 Int) (z_1599 Int))
	(=> (and true (diseqInt x_50035 x_50037) (plus_111 x_50034 y_1790 z_1599) (plus_111 x_50035 x_49975 x_50034) (plus_111 x_50036 x_49975 y_1790) (plus_111 x_50037 x_50036 z_1599)) false)))
(assert (forall ((x_50038 Int) (x_50039 Int) (x_49976 Int) (y_1791 Int))
	(=> (and true (diseqInt x_50038 x_50039) (plus_111 x_50038 x_49976 y_1791) (plus_111 x_50039 y_1791 x_49976)) false)))
(assert (forall ((x_50040 Int) (x_49977 Int))
	(=> (and true (diseqInt x_50040 x_49977) (plus_111 x_50040 x_49977 zero_113)) false)))
(assert (forall ((x_50041 Int) (x_49978 Int))
	(=> (and true (diseqInt x_50041 x_49978) (plus_111 x_50041 zero_113 x_49978)) false)))
(assert (forall ((x_50042 list_195) (x_50043 Int) (x_50044 Int) (x_49979 Int) (xs_532 list_195))
	(=> (and true (diseqInt x_50043 x_50044) (nmsorttd_3 x_50042 xs_532) (count_30 x_50043 x_49979 x_50042) (count_30 x_50044 x_49979 xs_532)) false)))
(check-sat)
